```{.cpp filename='in.peptide'}
# Solvated 5-mer peptide

pair_style	    lj/charmm/coul/long 8.0 10.0 10.0
bond_style      harmonic
angle_style     charmm
dihedral_style  charmm
improper_style  harmonic
kspace_style	pppm 0.0001

read_data	data.peptide

neighbor	2.0 bin
timestep	2.0

fix		1 all nvt temp 275.0 275.0 100.0 tchain 1
fix		2 all shake 0.0001 10 100 b 4 6 8 10 12 14 18 a 31

dump    1 all atom 10 atom.peptide

run		300
```